36
3
   13   12  -72
         1         1         1         1         1         1         1         1         1         1         1         1         1         1         1         1         1         1         1         1         1         1         1         1         1         1         1         1         1         1         1         1         1         1         1         1
    0     1     1     1       -10.000000
    0     1     1    10        -1.000000
    3     1     2     2        40.000000
    4     1     4     4        10.000000
    4     1     4     5        10.000000
    4     1     5     5        10.000000
    5     1     6     6         1.600000
    5     1     6     7         3.200000
    5     1     7     7         6.400000
    6     1     8     8        10.000000
    7     1    10    10         6.400000
    7     1    10    11         3.200000
    7     1    11    11         1.600000
    8     1    12    12         2.500000
    8     1    12    13         2.500000
    8     1    13    13         2.500000
   10     1     2     2        10.000000
   10     1     2     3       -10.000000
   10     1     3     3        10.000000
   11     1     4     4        40.000000
   12     1     6     6        10.000000
   12     1     6     7        10.000000
   12     1     7     7        10.000000
   13     1     8     8         6.400000
   13     1     8     9        -3.200000
   13     1     9     9         1.600000
   14     1    10    10        10.000000
   15     1    12    12         6.400000
   15     1    12    13         3.200000
   15     1    13    13         1.600000
   16     1     2     2         1.600000
   16     1     2     3        -3.200000
   16     1     3     3         6.400000
   17     1     4     4        10.000000
   17     1     4     5       -10.000000
   17     1     5     5        10.000000
   18     1     6     6        40.000000
   19     1     8     8         2.500000
   19     1     8     9        -2.500000
   19     1     9     9         2.500000
   20     1    10    10         6.400000
   20     1    10    11        -3.200000
   20     1    11    11         1.600000
   21     1    12    12        10.000000
   22     1     3     3        40.000000
   22     1     3     5       -40.000000
   22     1     5     5        40.000000
   23     1     3     3        10.000000
   23     1     3     7       -10.000000
   23     1     7     7        10.000000
   24     1     2     2        40.000000
   24     1     2     8       -40.000000
   24     1     8     8        40.000000
   25     1     2     2        10.000000
   25     1     2     3        10.000000
   25     1     3     3        10.000000
   25     1     2    10       -10.000000
   25     1     3    10       -10.000000
   25     1    10    10        10.000000
   25     1     2    11       -10.000000
   25     1     3    11       -10.000000
   25     1    10    11        10.000000
   25     1    11    11        10.000000
   26     1     2     2         1.600000
   26     1     2     3         3.200000
   26     1     3     3         6.400000
   26     1     2    12        -1.600000
   26     1     3    12        -3.200000
   26     1    12    12         1.600000
   26     1     2    13        -3.200000
   26     1     3    13        -6.400000
   26     1    12    13         3.200000
   26     1    13    13         6.400000
   27     1     5     5        40.000000
   27     1     5     7       -40.000000
   27     1     7     7        40.000000
   28     1     4     4        10.000000
   28     1     4     5       -10.000000
   28     1     5     5        10.000000
   28     1     4     8       -10.000000
   28     1     5     8        10.000000
   28     1     8     8        10.000000
   28     1     4     9        10.000000
   28     1     5     9       -10.000000
   28     1     8     9       -10.000000
   28     1     9     9        10.000000
   29     1     4     4        40.000000
   29     1     4    10       -40.000000
   29     1    10    10        40.000000
   30     1     4     4        10.000000
   30     1     4     5        10.000000
   30     1     5     5        10.000000
   30     1     4    12       -10.000000
   30     1     5    12       -10.000000
   30     1    12    12        10.000000
   30     1     4    13       -10.000000
   30     1     5    13       -10.000000
   30     1    12    13        10.000000
   30     1    13    13        10.000000
   31     1     6     6         1.600000
   31     1     6     7        -3.200000
   31     1     7     7         6.400000
   31     1     6     8        -1.600000
   31     1     7     8         3.200000
   31     1     8     8         1.600000
   31     1     6     9         3.200000
   31     1     7     9        -6.400000
   31     1     8     9        -3.200000
   31     1     9     9         6.400000
   32     1     6     6        10.000000
   32     1     6     7       -10.000000
   32     1     7     7        10.000000
   32     1     6    10       -10.000000
   32     1     7    10        10.000000
   32     1    10    10        10.000000
   32     1     6    11        10.000000
   32     1     7    11       -10.000000
   32     1    10    11       -10.000000
   32     1    11    11        10.000000
   33     1     6     6        40.000000
   33     1     6    12       -40.000000
   33     1    12    12        40.000000
   34     1     9     9        40.000000
   34     1     9    11       -40.000000
   34     1    11    11        40.000000
   35     1     9     9        10.000000
   35     1     9    13       -10.000000
   35     1    13    13        10.000000
   36     1    11    11        40.000000
   36     1    11    13       -40.000000
   36     1    13    13        40.000000
    3     2     1     1        37.000000
    3     2     2     2        -3.000000
    4     2     3     3         5.757359
    4     2     3     4        10.000000
    4     2     4     4         5.757359
    5     2     5     5        -5.108204
    5     2     5     6         3.200000
    5     2     6     6        -0.308204
    6     2     7     7         4.000000
    6     2     8     8        -6.000000
    7     2     9     9        -0.308204
    7     2     9    10         3.200000
    7     2    10    10        -5.108204
    8     2    11    11        -5.985281
    8     2    11    12         2.500000
    8     2    12    12        -5.985281
   10     2     1     1         5.757359
   10     2     1     2       -10.000000
   10     2     2     2         5.757359
   11     2     3     3        37.000000
   11     2     4     4        -3.000000
   12     2     5     5         5.757359
   12     2     5     6        10.000000
   12     2     6     6         5.757359
   13     2     7     7        -0.308204
   13     2     7     8        -3.200000
   13     2     8     8        -5.108204
   14     2     9     9         4.000000
   14     2    10    10        -6.000000
   15     2    11    11        -0.308204
   15     2    11    12         3.200000
   15     2    12    12        -5.108204
   16     2     1     1        -5.108204
   16     2     1     2        -3.200000
   16     2     2     2        -0.308204
   17     2     3     3         5.757359
   17     2     3     4       -10.000000
   17     2     4     4         5.757359
   18     2     5     5        37.000000
   18     2     6     6        -3.000000
   19     2     7     7        -5.985281
   19     2     7     8        -2.500000
   19     2     8     8        -5.985281
   20     2     9     9        -0.308204
   20     2     9    10        -3.200000
   20     2    10    10        -5.108204
   21     2    11    11         4.000000
   21     2    12    12        -6.000000
   22     2     1     1        -3.000000
   22     2     2     2        37.000000
   22     2     1     3        -1.500000
   22     2     3     3        -3.000000
   22     2     2     4       -41.500000
   22     2     4     4        37.000000
   23     2     1     1        -6.000000
   23     2     2     2         4.000000
   23     2     1     5        -3.000000
   23     2     5     5        -6.000000
   23     2     2     6       -13.000000
   23     2     6     6         4.000000
   24     2     1     1        37.000000
   24     2     2     2        -3.000000
   24     2     1     7       -41.500000
   24     2     7     7        37.000000
   24     2     2     8        -1.500000
   24     2     8     8        -3.000000
   25     2     1     1         5.757359
   25     2     1     2        10.000000
   25     2     2     2         5.757359
   25     2     1     9       -12.121320
   25     2     2     9       -10.000000
   25     2     9     9         5.757359
   25     2     1    10       -10.000000
   25     2     2    10       -12.121320
   25     2     9    10        10.000000
   25     2    10    10         5.757359
   26     2     1     1        -5.108204
   26     2     1     2         3.200000
   26     2     2     2        -0.308204
   26     2     1    11        -4.954102
   26     2     2    11        -3.200000
   26     2    11    11        -5.108204
   26     2     1    12        -3.200000
   26     2     2    12        -9.754102
   26     2    11    12         3.200000
   26     2    12    12        -0.308204
   27     2     3     3        -3.000000
   27     2     4     4        37.000000
   27     2     3     5        -1.500000
   27     2     5     5        -3.000000
   27     2     4     6       -41.500000
   27     2     6     6        37.000000
   28     2     3     3         5.757359
   28     2     3     4       -10.000000
   28     2     4     4         5.757359
   28     2     3     7       -12.121320
   28     2     4     7        10.000000
   28     2     7     7         5.757359
   28     2     3     8        10.000000
   28     2     4     8       -12.121320
   28     2     7     8       -10.000000
   28     2     8     8         5.757359
   29     2     3     3        37.000000
   29     2     4     4        -3.000000
   29     2     3     9       -41.500000
   29     2     9     9        37.000000
   29     2     4    10        -1.500000
   29     2    10    10        -3.000000
   30     2     3     3         5.757359
   30     2     3     4        10.000000
   30     2     4     4         5.757359
   30     2     3    11       -12.121320
   30     2     4    11       -10.000000
   30     2    11    11         5.757359
   30     2     3    12       -10.000000
   30     2     4    12       -12.121320
   30     2    11    12        10.000000
   30     2    12    12         5.757359
   31     2     5     5        -5.108204
   31     2     5     6        -3.200000
   31     2     6     6        -0.308204
   31     2     5     7        -4.954102
   31     2     6     7         3.200000
   31     2     7     7        -5.108204
   31     2     5     8         3.200000
   31     2     6     8        -9.754102
   31     2     7     8        -3.200000
   31     2     8     8        -0.308204
   32     2     5     5         5.757359
   32     2     5     6       -10.000000
   32     2     6     6         5.757359
   32     2     5     9       -12.121320
   32     2     6     9        10.000000
   32     2     9     9         5.757359
   32     2     5    10        10.000000
   32     2     6    10       -12.121320
   32     2     9    10       -10.000000
   32     2    10    10         5.757359
   33     2     5     5        37.000000
   33     2     6     6        -3.000000
   33     2     5    11       -41.500000
   33     2    11    11        37.000000
   33     2     6    12        -1.500000
   33     2    12    12        -3.000000
   34     2     7     7        -3.000000
   34     2     8     8        37.000000
   34     2     7     9        -1.500000
   34     2     9     9        -3.000000
   34     2     8    10       -41.500000
   34     2    10    10        37.000000
   35     2     7     7        -6.000000
   35     2     8     8         4.000000
   35     2     7    11        -3.000000
   35     2    11    11        -6.000000
   35     2     8    12       -13.000000
   35     2    12    12         4.000000
   36     2     9     9        -3.000000
   36     2    10    10        37.000000
   36     2     9    11        -1.500000
   36     2    11    11        -3.000000
   36     2    10    12       -41.500000
   36     2    12    12        37.000000
    0     3     1     1        -5.000000
    0     3     2     2        -5.000000
    0     3     3     3        -5.000000
    0     3     4     4        -5.000000
    0     3     5     5        -5.000000
    0     3     6     6        -5.000000
    0     3     7     7        -5.000000
    0     3     8     8        -5.000000
    0     3     9     9        -5.000000
    0     3    10    10        -5.000000
    0     3    11    11        -5.000000
    0     3    12    12        -5.000000
    0     3    13    13        -5.000000
    0     3    14    14        -5.000000
    0     3    15    15        -5.000000
    0     3    16    16        -5.000000
    0     3    17    17        -5.000000
    0     3    18    18        -5.000000
    0     3    19    19        -5.000000
    0     3    20    20        -5.000000
    0     3    21    21        -5.000000
    0     3    22    22        -5.000000
    0     3    23    23        -5.000000
    0     3    24    24        -5.000000
    0     3    25    25        -5.000000
    0     3    26    26        -5.000000
    0     3    27    27        -5.000000
    0     3    28    28        -5.000000
    0     3    29    29        -5.000000
    0     3    30    30        -5.000000
    0     3    31    31        -5.000000
    0     3    32    32        -5.000000
    0     3    33    33        -5.000000
    0     3    34    34        -5.000000
    0     3    35    35        -5.000000
    0     3    36    36        -5.000000
    0     3    37    37        -0.000000
    0     3    38    38        -0.000000
    0     3    39    39        -0.000000
    0     3    40    40        -0.000000
    0     3    41    41        -0.000000
    0     3    42    42        -0.000000
    0     3    43    43        -0.000000
    0     3    44    44        -0.000000
    0     3    45    45        -0.000000
    0     3    46    46        -0.000000
    0     3    47    47        -0.000000
    0     3    48    48        -0.000000
    0     3    49    49        -0.000000
    0     3    50    50        -0.000000
    0     3    51    51        -0.000000
    0     3    52    52        -0.000000
    0     3    53    53        -0.000000
    0     3    54    54        -0.000000
    0     3    55    55        -0.000000
    0     3    56    56        -0.000000
    0     3    57    57        -0.000000
    0     3    58    58        -0.000000
    0     3    59    59        -0.000000
    0     3    60    60        -0.000000
    0     3    61    61        -0.000000
    0     3    62    62        -0.000000
    0     3    63    63        -0.000000
    0     3    64    64        -0.000000
    0     3    65    65        -0.000000
    0     3    66    66        -0.000000
    0     3    67    67        -0.000000
    0     3    68    68        -0.000000
    0     3    69    69        -0.000000
    0     3    70    70        -0.000000
    0     3    71    71        -0.000000
    0     3    72    72        -0.000000
    1     3     1     1        -1.000000
    2     3     2     2        -1.000000
    3     3     3     3        -1.000000
    4     3     4     4        -1.000000
    5     3     5     5        -1.000000
    6     3     6     6        -1.000000
    7     3     7     7        -1.000000
    8     3     8     8        -1.000000
    9     3     9     9        -1.000000
   10     3    10    10        -1.000000
   11     3    11    11        -1.000000
   12     3    12    12        -1.000000
   13     3    13    13        -1.000000
   14     3    14    14        -1.000000
   15     3    15    15        -1.000000
   16     3    16    16        -1.000000
   17     3    17    17        -1.000000
   18     3    18    18        -1.000000
   19     3    19    19        -1.000000
   20     3    20    20        -1.000000
   21     3    21    21        -1.000000
   22     3    22    22        -1.000000
   23     3    23    23        -1.000000
   24     3    24    24        -1.000000
   25     3    25    25        -1.000000
   26     3    26    26        -1.000000
   27     3    27    27        -1.000000
   28     3    28    28        -1.000000
   29     3    29    29        -1.000000
   30     3    30    30        -1.000000
   31     3    31    31        -1.000000
   32     3    32    32        -1.000000
   33     3    33    33        -1.000000
   34     3    34    34        -1.000000
   35     3    35    35        -1.000000
   36     3    36    36        -1.000000
    1     3    37    37         1.000000
    2     3    38    38         1.000000
    3     3    39    39         1.000000
    4     3    40    40         1.000000
    5     3    41    41         1.000000
    6     3    42    42         1.000000
    7     3    43    43         1.000000
    8     3    44    44         1.000000
    9     3    45    45         1.000000
   10     3    46    46         1.000000
   11     3    47    47         1.000000
   12     3    48    48         1.000000
   13     3    49    49         1.000000
   14     3    50    50         1.000000
   15     3    51    51         1.000000
   16     3    52    52         1.000000
   17     3    53    53         1.000000
   18     3    54    54         1.000000
   19     3    55    55         1.000000
   20     3    56    56         1.000000
   21     3    57    57         1.000000
   22     3    58    58         1.000000
   23     3    59    59         1.000000
   24     3    60    60         1.000000
   25     3    61    61         1.000000
   26     3    62    62         1.000000
   27     3    63    63         1.000000
   28     3    64    64         1.000000
   29     3    65    65         1.000000
   30     3    66    66         1.000000
   31     3    67    67         1.000000
   32     3    68    68         1.000000
   33     3    69    69         1.000000
   34     3    70    70         1.000000
   35     3    71    71         1.000000
   36     3    72    72         1.000000
